p cnf 175 1631
1 2 3 4 5 0
6 7 8 9 10 0
11 12 13 14 15 0
16 17 18 19 20 0
21 22 23 24 25 0
26 27 28 29 30 0
31 32 33 34 35 0
36 37 38 39 40 0
41 42 43 44 45 0
46 47 48 49 50 0
51 52 53 54 55 0
56 57 58 59 60 0
61 62 63 64 65 0
66 67 68 69 70 0
71 72 73 74 75 0
76 77 78 79 80 0
81 82 83 84 85 0
86 87 88 89 90 0
91 92 93 94 95 0
96 97 98 99 100 0
101 102 103 104 105 0
106 107 108 109 110 0
111 112 113 114 115 0
116 117 118 119 120 0
121 122 123 124 125 0
126 127 128 129 130 0
131 132 133 134 135 0
136 137 138 139 140 0
141 142 143 144 145 0
146 147 148 149 150 0
151 152 153 154 155 0
156 157 158 159 160 0
161 162 163 164 165 0
166 167 168 169 170 0
171 172 173 174 175 0
-1 -2 0
-1 -3 0
-1 -4 0
-1 -5 0
-2 -3 0
-2 -4 0
-2 -5 0
-3 -4 0
-3 -5 0
-4 -5 0
-6 -7 0
-6 -8 0
-6 -9 0
-6 -10 0
-7 -8 0
-7 -9 0
-7 -10 0
-8 -9 0
-8 -10 0
-9 -10 0
-11 -12 0
-11 -13 0
-11 -14 0
-11 -15 0
-12 -13 0
-12 -14 0
-12 -15 0
-13 -14 0
-13 -15 0
-14 -15 0
-16 -17 0
-16 -18 0
-16 -19 0
-16 -20 0
-17 -18 0
-17 -19 0
-17 -20 0
-18 -19 0
-18 -20 0
-19 -20 0
-21 -22 0
-21 -23 0
-21 -24 0
-21 -25 0
-22 -23 0
-22 -24 0
-22 -25 0
-23 -24 0
-23 -25 0
-24 -25 0
-26 -27 0
-26 -28 0
-26 -29 0
-26 -30 0
-27 -28 0
-27 -29 0
-27 -30 0
-28 -29 0
-28 -30 0
-29 -30 0
-31 -32 0
-31 -33 0
-31 -34 0
-31 -35 0
-32 -33 0
-32 -34 0
-32 -35 0
-33 -34 0
-33 -35 0
-34 -35 0
-36 -37 0
-36 -38 0
-36 -39 0
-36 -40 0
-37 -38 0
-37 -39 0
-37 -40 0
-38 -39 0
-38 -40 0
-39 -40 0
-41 -42 0
-41 -43 0
-41 -44 0
-41 -45 0
-42 -43 0
-42 -44 0
-42 -45 0
-43 -44 0
-43 -45 0
-44 -45 0
-46 -47 0
-46 -48 0
-46 -49 0
-46 -50 0
-47 -48 0
-47 -49 0
-47 -50 0
-48 -49 0
-48 -50 0
-49 -50 0
-51 -52 0
-51 -53 0
-51 -54 0
-51 -55 0
-52 -53 0
-52 -54 0
-52 -55 0
-53 -54 0
-53 -55 0
-54 -55 0
-56 -57 0
-56 -58 0
-56 -59 0
-56 -60 0
-57 -58 0
-57 -59 0
-57 -60 0
-58 -59 0
-58 -60 0
-59 -60 0
-61 -62 0
-61 -63 0
-61 -64 0
-61 -65 0
-62 -63 0
-62 -64 0
-62 -65 0
-63 -64 0
-63 -65 0
-64 -65 0
-66 -67 0
-66 -68 0
-66 -69 0
-66 -70 0
-67 -68 0
-67 -69 0
-67 -70 0
-68 -69 0
-68 -70 0
-69 -70 0
-71 -72 0
-71 -73 0
-71 -74 0
-71 -75 0
-72 -73 0
-72 -74 0
-72 -75 0
-73 -74 0
-73 -75 0
-74 -75 0
-76 -77 0
-76 -78 0
-76 -79 0
-76 -80 0
-77 -78 0
-77 -79 0
-77 -80 0
-78 -79 0
-78 -80 0
-79 -80 0
-81 -82 0
-81 -83 0
-81 -84 0
-81 -85 0
-82 -83 0
-82 -84 0
-82 -85 0
-83 -84 0
-83 -85 0
-84 -85 0
-86 -87 0
-86 -88 0
-86 -89 0
-86 -90 0
-87 -88 0
-87 -89 0
-87 -90 0
-88 -89 0
-88 -90 0
-89 -90 0
-91 -92 0
-91 -93 0
-91 -94 0
-91 -95 0
-92 -93 0
-92 -94 0
-92 -95 0
-93 -94 0
-93 -95 0
-94 -95 0
-96 -97 0
-96 -98 0
-96 -99 0
-96 -100 0
-97 -98 0
-97 -99 0
-97 -100 0
-98 -99 0
-98 -100 0
-99 -100 0
-101 -102 0
-101 -103 0
-101 -104 0
-101 -105 0
-102 -103 0
-102 -104 0
-102 -105 0
-103 -104 0
-103 -105 0
-104 -105 0
-106 -107 0
-106 -108 0
-106 -109 0
-106 -110 0
-107 -108 0
-107 -109 0
-107 -110 0
-108 -109 0
-108 -110 0
-109 -110 0
-111 -112 0
-111 -113 0
-111 -114 0
-111 -115 0
-112 -113 0
-112 -114 0
-112 -115 0
-113 -114 0
-113 -115 0
-114 -115 0
-116 -117 0
-116 -118 0
-116 -119 0
-116 -120 0
-117 -118 0
-117 -119 0
-117 -120 0
-118 -119 0
-118 -120 0
-119 -120 0
-121 -122 0
-121 -123 0
-121 -124 0
-121 -125 0
-122 -123 0
-122 -124 0
-122 -125 0
-123 -124 0
-123 -125 0
-124 -125 0
-126 -127 0
-126 -128 0
-126 -129 0
-126 -130 0
-127 -128 0
-127 -129 0
-127 -130 0
-128 -129 0
-128 -130 0
-129 -130 0
-131 -132 0
-131 -133 0
-131 -134 0
-131 -135 0
-132 -133 0
-132 -134 0
-132 -135 0
-133 -134 0
-133 -135 0
-134 -135 0
-136 -137 0
-136 -138 0
-136 -139 0
-136 -140 0
-137 -138 0
-137 -139 0
-137 -140 0
-138 -139 0
-138 -140 0
-139 -140 0
-141 -142 0
-141 -143 0
-141 -144 0
-141 -145 0
-142 -143 0
-142 -144 0
-142 -145 0
-143 -144 0
-143 -145 0
-144 -145 0
-146 -147 0
-146 -148 0
-146 -149 0
-146 -150 0
-147 -148 0
-147 -149 0
-147 -150 0
-148 -149 0
-148 -150 0
-149 -150 0
-151 -152 0
-151 -153 0
-151 -154 0
-151 -155 0
-152 -153 0
-152 -154 0
-152 -155 0
-153 -154 0
-153 -155 0
-154 -155 0
-156 -157 0
-156 -158 0
-156 -159 0
-156 -160 0
-157 -158 0
-157 -159 0
-157 -160 0
-158 -159 0
-158 -160 0
-159 -160 0
-161 -162 0
-161 -163 0
-161 -164 0
-161 -165 0
-162 -163 0
-162 -164 0
-162 -165 0
-163 -164 0
-163 -165 0
-164 -165 0
-166 -167 0
-166 -168 0
-166 -169 0
-166 -170 0
-167 -168 0
-167 -169 0
-167 -170 0
-168 -169 0
-168 -170 0
-169 -170 0
-171 -172 0
-171 -173 0
-171 -174 0
-171 -175 0
-172 -173 0
-172 -174 0
-172 -175 0
-173 -174 0
-173 -175 0
-174 -175 0
-3 -6 0
-3 -9 0
-1 -9 0
-2 -8 0
-2 -6 0
-2 -9 0
-3 -10 0
-1 -21 0
-1 -22 0
-5 -24 0
-5 -23 0
-2 -21 0
-3 -22 0
-2 -23 0
-5 -32 0
-2 -31 0
-1 -35 0
-4 -34 0
-2 -32 0
-5 -33 0
-2 -33 0
-1 -45 0
-5 -45 0
-4 -43 0
-3 -44 0
-1 -42 0
-3 -41 0
-2 -42 0
-4 -51 0
-4 -55 0
-1 -55 0
-2 -52 0
-2 -53 0
-3 -55 0
-5 -52 0
-5 -85 0
-3 -82 0
-2 -84 0
-4 -81 0
-2 -81 0
-4 -84 0
-4 -85 0
-3 -124 0
-2 -125 0
-1 -121 0
-3 -125 0
-1 -122 0
-4 -122 0
-1 -123 0
-2 -158 0
-1 -157 0
-4 -156 0
-1 -156 0
-3 -156 0
-2 -157 0
-4 -160 0
-3 -164 0
-3 -161 0
-4 -161 0
-1 -163 0
-3 -163 0
-4 -163 0
-5 -165 0
-1 -174 0
-2 -173 0
-2 -172 0
-3 -174 0
-4 -175 0
-3 -173 0
-1 -171 0
-7 -13 0
-7 -11 0
-8 -14 0
-8 -13 0
-6 -14 0
-7 -15 0
-10 -15 0
-9 -56 0
-8 -56 0
-7 -58 0
-8 -59 0
-9 -60 0
-7 -57 0
-6 -57 0
-8 -64 0
-6 -64 0
-8 -61 0
-9 -63 0
-7 -61 0
-6 -62 0
-10 -65 0
-8 -68 0
-10 -68 0
-9 -66 0
-8 -66 0
-10 -70 0
-6 -70 0
-6 -66 0
-8 -79 0
-10 -77 0
-10 -78 0
-7 -80 0
-7 -77 0
-6 -77 0
-9 -79 0
-9 -106 0
-6 -109 0
-6 -106 0
-7 -107 0
-9 -107 0
-8 -107 0
-8 -109 0
-7 -127 0
-8 -129 0
-10 -130 0
-7 -129 0
-10 -129 0
-6 -130 0
-7 -130 0
-9 -134 0
-9 -135 0
-7 -132 0
-7 -131 0
-9 -131 0
-6 -131 0
-8 -133 0
-8 -136 0
-7 -138 0
-10 -139 0
-7 -137 0
-6 -139 0
-8 -139 0
-7 -140 0
-7 -142 0
-10 -141 0
-6 -141 0
-6 -143 0
-6 -144 0
-8 -142 0
-8 -144 0
-10 -149 0
-10 -150 0
-9 -148 0
-8 -150 0
-7 -150 0
-6 -150 0
-6 -149 0
-10 -165 0
-7 -165 0
-10 -164 0
-9 -162 0
-6 -163 0
-7 -163 0
-8 -161 0
-9 -166 0
-9 -167 0
-9 -169 0
-10 -169 0
-10 -168 0
-9 -168 0
-7 -166 0
-6 -173 0
-8 -173 0
-10 -173 0
-10 -172 0
-10 -174 0
-9 -173 0
-6 -172 0
-14 -34 0
-15 -34 0
-13 -34 0
-12 -33 0
-13 -33 0
-14 -33 0
-13 -32 0
-13 -68 0
-15 -70 0
-11 -66 0
-14 -66 0
-11 -67 0
-13 -67 0
-11 -69 0
-11 -80 0
-15 -76 0
-15 -79 0
-13 -77 0
-14 -78 0
-11 -77 0
-12 -78 0
-14 -112 0
-14 -115 0
-15 -111 0
-11 -114 0
-15 -115 0
-11 -113 0
-11 -112 0
-15 -128 0
-15 -126 0
-12 -126 0
-13 -130 0
-14 -127 0
-12 -127 0
-13 -128 0
-12 -151 0
-11 -155 0
-15 -155 0
-11 -153 0
-11 -152 0
-14 -151 0
-12 -155 0
-11 -170 0
-14 -167 0
-13 -166 0
-12 -167 0
-12 -168 0
-14 -170 0
-13 -168 0
-16 -24 0
-20 -22 0
-16 -25 0
-18 -22 0
-20 -23 0
-17 -25 0
-19 -25 0
-18 -64 0
-16 -64 0
-18 -65 0
-20 -63 0
-16 -62 0
-17 -64 0
-19 -64 0
-18 -69 0
-19 -69 0
-16 -68 0
-17 -70 0
-17 -68 0
-20 -67 0
-16 -69 0
-18 -79 0
-19 -78 0
-16 -77 0
-16 -78 0
-18 -77 0
-19 -77 0
-16 -79 0
-18 -90 0
-19 -86 0
-17 -87 0
-19 -88 0
-17 -89 0
-18 -88 0
-16 -87 0
-20 -95 0
-17 -92 0
-18 -93 0
-17 -93 0
-18 -94 0
-19 -93 0
-20 -91 0
-17 -101 0
-20 -103 0
-16 -105 0
-16 -102 0
-16 -104 0
-20 -102 0
-19 -104 0
-19 -120 0
-18 -119 0
-16 -120 0
-19 -118 0
-16 -117 0
-18 -116 0
-19 -117 0
-20 -128 0
-18 -129 0
-20 -129 0
-19 -128 0
-18 -127 0
-17 -128 0
-17 -129 0
-20 -150 0
-18 -148 0
-20 -148 0
-18 -147 0
-17 -147 0
-19 -149 0
-16 -149 0
-20 -167 0
-19 -169 0
-17 -170 0
-16 -170 0
-19 -167 0
-19 -170 0
-17 -169 0
-18 -171 0
-18 -173 0
-17 -175 0
-17 -173 0
-19 -172 0
-16 -171 0
-20 -172 0
-23 -36 0
-21 -38 0
-23 -40 0
-25 -37 0
-21 -39 0
-23 -38 0
-25 -36 0
-23 -55 0
-22 -52 0
-25 -51 0
-23 -54 0
-24 -51 0
-21 -54 0
-24 -53 0
-24 -79 0
-22 -77 0
-25 -79 0
-23 -76 0
-24 -77 0
-23 -77 0
-25 -78 0
-24 -111 0
-24 -115 0
-23 -115 0
-22 -112 0
-24 -114 0
-21 -114 0
-21 -111 0
-22 -142 0
-22 -141 0
-23 -143 0
-25 -143 0
-25 -141 0
-24 -145 0
-22 -145 0
-22 -156 0
-25 -157 0
-23 -158 0
-21 -157 0
-21 -158 0
-23 -156 0
-22 -159 0
-21 -170 0
-22 -167 0
-23 -168 0
-25 -168 0
-21 -168 0
-25 -169 0
-24 -168 0
-21 -172 0
-24 -172 0
-25 -172 0
-23 -174 0
-21 -175 0
-22 -171 0
-24 -171 0
-28 -37 0
-29 -36 0
-29 -39 0
-27 -40 0
-26 -37 0
-26 -40 0
-26 -36 0
-28 -61 0
-27 -65 0
-29 -62 0
-29 -65 0
-26 -64 0
-29 -63 0
-28 -63 0
-27 -88 0
-27 -89 0
-29 -89 0
-26 -89 0
-29 -90 0
-30 -87 0
-29 -87 0
-29 -108 0
-28 -108 0
-29 -110 0
-30 -110 0
-30 -106 0
-27 -109 0
-28 -106 0
-28 -126 0
-27 -128 0
-28 -128 0
-27 -127 0
-26 -126 0
-30 -130 0
-26 -127 0
-29 -136 0
-28 -138 0
-29 -140 0
-30 -137 0
-26 -138 0
-28 -136 0
-28 -137 0
-29 -150 0
-27 -146 0
-26 -146 0
-30 -148 0
-26 -149 0
-29 -146 0
-30 -149 0
-30 -168 0
-30 -166 0
-26 -167 0
-28 -168 0
-26 -169 0
-29 -168 0
-27 -167 0
-31 -62 0
-32 -65 0
-32 -63 0
-35 -61 0
-32 -61 0
-35 -62 0
-33 -61 0
-32 -70 0
-34 -66 0
-34 -67 0
-31 -67 0
-35 -66 0
-31 -66 0
-35 -70 0
-32 -89 0
-31 -88 0
-31 -86 0
-33 -87 0
-32 -90 0
-34 -87 0
-34 -90 0
-31 -95 0
-35 -92 0
-35 -91 0
-34 -93 0
-34 -91 0
-32 -95 0
-31 -92 0
-34 -103 0
-35 -102 0
-31 -102 0
-32 -105 0
-34 -104 0
-31 -101 0
-33 -105 0
-33 -115 0
-35 -115 0
-32 -114 0
-34 -113 0
-31 -113 0
-33 -114 0
-32 -111 0
-32 -120 0
-31 -116 0
-31 -119 0
-33 -116 0
-34 -120 0
-34 -119 0
-33 -119 0
-33 -122 0
-35 -121 0
-32 -122 0
-31 -124 0
-32 -125 0
-32 -121 0
-34 -123 0
-38 -45 0
-39 -44 0
-38 -42 0
-38 -44 0
-39 -42 0
-36 -43 0
-39 -45 0
-38 -49 0
-40 -48 0
-40 -46 0
-37 -50 0
-37 -49 0
-38 -50 0
-37 -47 0
-37 -54 0
-37 -53 0
-36 -52 0
-39 -54 0
-40 -55 0
-38 -54 0
-36 -55 0
-37 -70 0
-38 -67 0
-39 -68 0
-36 -68 0
-36 -66 0
-38 -68 0
-39 -66 0
-36 -80 0
-36 -77 0
-38 -80 0
-40 -77 0
-37 -77 0
-37 -79 0
-40 -79 0
-38 -89 0
-40 -88 0
-36 -88 0
-39 -90 0
-40 -90 0
-37 -89 0
-37 -88 0
-36 -94 0
-39 -94 0
-36 -92 0
-38 -93 0
-36 -95 0
-39 -95 0
-36 -93 0
-37 -102 0
-39 -101 0
-38 -104 0
-37 -105 0
-37 -103 0
-36 -101 0
-40 -104 0
-40 -107 0
-40 -108 0
-37 -108 0
-36 -107 0
-40 -106 0
-40 -110 0
-39 -109 0
-39 -117 0
-36 -116 0
-38 -118 0
-38 -116 0
-38 -119 0
-38 -117 0
-36 -118 0
-39 -134 0
-36 -131 0
-37 -132 0
-38 -134 0
-39 -132 0
-36 -132 0
-36 -133 0
-42 -55 0
-45 -55 0
-42 -53 0
-44 -52 0
-45 -51 0
-42 -51 0
-43 -54 0
-41 -75 0
-44 -74 0
-44 -72 0
-41 -74 0
-42 -73 0
-42 -75 0
-43 -72 0
-44 -120 0
-45 -118 0
-43 -116 0
-41 -116 0
-42 -116 0
-45 -116 0
-44 -118 0
-43 -137 0
-45 -139 0
-43 -140 0
-45 -140 0
-44 -140 0
-44 -136 0
-41 -136 0
-41 -165 0
-42 -161 0
-45 -165 0
-43 -165 0
-45 -164 0
-43 -164 0
-43 -161 0
-45 -169 0
-41 -170 0
-41 -169 0
-42 -169 0
-41 -166 0
-44 -170 0
-43 -169 0
-43 -173 0
-44 -171 0
-45 -171 0
-43 -175 0
-43 -174 0
-45 -172 0
-41 -175 0
-47 -62 0
-48 -65 0
-48 -62 0
-47 -63 0
-49 -63 0
-48 -63 0
-49 -61 0
-49 -83 0
-49 -81 0
-47 -82 0
-49 -82 0
-48 -83 0
-48 -82 0
-47 -84 0
-50 -95 0
-46 -91 0
-46 -95 0
-47 -91 0
-48 -94 0
-48 -95 0
-50 -93 0
-48 -101 0
-48 -105 0
-47 -103 0
-48 -103 0
-47 -102 0
-50 -104 0
-46 -103 0
-50 -132 0
-49 -132 0
-46 -131 0
-48 -135 0
-47 -135 0
-49 -133 0
-50 -133 0
-47 -143 0
-49 -145 0
-47 -144 0
-46 -143 0
-46 -142 0
-49 -141 0
-47 -142 0
-48 -151 0
-47 -151 0
-46 -153 0
-47 -155 0
-47 -152 0
-49 -152 0
-47 -153 0
-47 -164 0
-46 -161 0
-50 -162 0
-46 -162 0
-46 -165 0
-46 -164 0
-47 -163 0
-48 -167 0
-48 -170 0
-49 -167 0
-50 -166 0
-49 -170 0
-50 -169 0
-47 -166 0
-46 -174 0
-48 -175 0
-49 -174 0
-46 -171 0
-46 -172 0
-50 -173 0
-49 -171 0
-55 -71 0
-55 -72 0
-51 -73 0
-52 -75 0
-53 -72 0
-53 -75 0
-55 -74 0
-55 -81 0
-54 -85 0
-53 -84 0
-52 -83 0
-54 -81 0
-51 -81 0
-52 -84 0
-55 -96 0
-52 -98 0
-52 -100 0
-51 -98 0
-54 -97 0
-51 -96 0
-52 -99 0
-51 -155 0
-51 -152 0
-54 -151 0
-51 -151 0
-53 -154 0
-54 -154 0
-54 -155 0
-52 -156 0
-54 -159 0
-53 -156 0
-52 -160 0
-51 -158 0
-53 -159 0
-53 -158 0
-54 -163 0
-55 -164 0
-52 -161 0
-55 -165 0
-55 -161 0
-54 -161 0
-51 -164 0
-51 -168 0
-51 -167 0
-55 -170 0
-51 -169 0
-54 -169 0
-54 -168 0
-51 -166 0
-59 -62 0
-57 -62 0
-58 -62 0
-58 -65 0
-56 -61 0
-57 -65 0
-59 -64 0
-56 -89 0
-59 -87 0
-56 -86 0
-60 -88 0
-60 -90 0
-58 -86 0
-59 -88 0
-56 -116 0
-58 -120 0
-58 -118 0
-59 -118 0
-57 -119 0
-57 -117 0
-58 -117 0
-57 -165 0
-57 -161 0
-59 -164 0
-59 -162 0
-59 -163 0
-57 -164 0
-56 -163 0
-63 -81 0
-65 -82 0
-64 -84 0
-62 -85 0
-62 -81 0
-65 -81 0
-65 -84 0
-64 -86 0
-65 -90 0
-65 -89 0
-61 -89 0
-62 -88 0
-65 -86 0
-63 -86 0
-64 -100 0
-61 -100 0
-65 -97 0
-63 -97 0
-63 -98 0
-65 -96 0
-61 -98 0
-61 -171 0
-65 -174 0
-61 -172 0
-61 -174 0
-63 -174 0
-65 -173 0
-65 -175 0
-68 -82 0
-67 -85 0
-69 -84 0
-67 -84 0
-70 -82 0
-69 -83 0
-68 -83 0
-67 -111 0
-70 -113 0
-69 -113 0
-67 -115 0
-69 -111 0
-69 -115 0
-70 -115 0
-66 -119 0
-69 -117 0
-70 -116 0
-66 -118 0
-69 -120 0
-66 -116 0
-67 -120 0
-66 -160 0
-67 -157 0
-66 -159 0
-70 -159 0
-67 -159 0
-68 -159 0
-70 -156 0
-73 -86 0
-72 -89 0
-74 -89 0
-71 -90 0
-71 -89 0
-71 -87 0
-72 -87 0
-75 -102 0
-73 -103 0
-71 -101 0
-71 -104 0
-73 -105 0
-72 -101 0
-74 -102 0
-75 -138 0
-71 -140 0
-72 -140 0
-73 -140 0
-75 -136 0
-74 -136 0
-73 -136 0
-74 -145 0
-74 -144 0
-72 -141 0
-73 -145 0
-71 -144 0
-71 -143 0
-74 -141 0
-73 -169 0
-74 -169 0
-72 -167 0
-71 -168 0
-73 -166 0
-73 -168 0
-72 -169 0
-80 -84 0
-78 -83 0
-80 -81 0
-79 -82 0
-77 -84 0
-77 -82 0
-77 -85 0
-77 -92 0
-79 -94 0
-80 -95 0
-76 -91 0
-76 -95 0
-77 -94 0
-79 -95 0
-80 -97 0
-79 -98 0
-77 -99 0
-76 -97 0
-76 -96 0
-79 -100 0
-79 -97 0
-76 -117 0
-78 -120 0
-78 -119 0
-76 -119 0
-79 -119 0
-80 -119 0
-77 -120 0
-79 -126 0
-80 -130 0
-80 -129 0
-80 -127 0
-78 -128 0
-80 -128 0
-79 -130 0
-77 -135 0
-79 -134 0
-79 -131 0
-80 -131 0
-76 -134 0
-76 -132 0
-77 -132 0
-79 -137 0
-77 -138 0
-77 -136 0
-79 -139 0
-76 -136 0
-77 -137 0
-80 -138 0
-76 -148 0
-80 -146 0
-78 -146 0
-79 -147 0
-77 -147 0
-76 -147 0
-79 -146 0
-81 -99 0
-82 -96 0
-83 -97 0
-84 -100 0
-82 -98 0
-84 -97 0
-82 -99 0
-84 -128 0
-85 -126 0
-83 -130 0
-82 -130 0
-81 -128 0
-82 -128 0
-81 -126 0
-83 -153 0
-83 -154 0
-81 -155 0
-81 -154 0
-84 -151 0
-81 -152 0
-85 -155 0
-84 -161 0
-83 -162 0
-82 -164 0
-83 -163 0
-83 -161 0
-82 -161 0
-82 -163 0
-87 -114 0
-88 -115 0
-90 -111 0
-88 -113 0
-89 -113 0
-86 -115 0
-88 -114 0
-90 -151 0
-89 -152 0
-89 -151 0
-88 -153 0
-87 -152 0
-88 -154 0
-89 -154 0
-90 -156 0
-90 -160 0
-89 -158 0
-86 -158 0
-88 -156 0
-90 -159 0
-89 -156 0
-94 -98 0
-92 -100 0
-91 -98 0
-93 -98 0
-91 -100 0
-95 -99 0
-93 -99 0
-95 -119 0
-92 -117 0
-91 -116 0
-94 -120 0
-93 -117 0
-92 -116 0
-95 -118 0
-91 -128 0
-95 -129 0
-95 -126 0
-91 -129 0
-92 -129 0
-91 -130 0
-93 -128 0
-93 -164 0
-94 -161 0
-93 -165 0
-94 -163 0
-92 -165 0
-91 -165 0
-93 -162 0
-95 -167 0
-93 -166 0
-93 -167 0
-91 -167 0
-95 -168 0
-93 -168 0
-94 -168 0
-91 -174 0
-91 -173 0
-94 -173 0
-93 -171 0
-92 -174 0
-93 -173 0
-95 -172 0
-98 -102 0
-99 -105 0
-96 -104 0
-97 -104 0
-96 -101 0
-100 -103 0
-98 -101 0
-100 -113 0
-98 -114 0
-99 -114 0
-96 -113 0
-96 -112 0
-98 -111 0
-100 -115 0
-100 -139 0
-97 -137 0
-100 -136 0
-99 -138 0
-96 -138 0
-97 -138 0
-100 -137 0
-100 -143 0
-99 -142 0
-99 -145 0
-100 -141 0
-96 -144 0
-100 -142 0
-96 -141 0
-96 -168 0
-100 -167 0
-99 -169 0
-98 -170 0
-100 -170 0
-97 -168 0
-97 -169 0
-105 -121 0
-104 -125 0
-102 -122 0
-105 -122 0
-105 -125 0
-101 -123 0
-101 -125 0
-103 -142 0
-102 -144 0
-102 -143 0
-105 -145 0
-103 -145 0
-101 -141 0
-104 -142 0
-102 -167 0
-101 -170 0
-104 -168 0
-101 -169 0
-102 -169 0
-104 -166 0
-101 -168 0
-110 -156 0
-110 -157 0
-107 -159 0
-106 -158 0
-110 -158 0
-107 -158 0
-108 -160 0
-111 -117 0
-114 -118 0
-112 -120 0
-111 -118 0
-113 -118 0
-111 -116 0
-111 -119 0
-115 -142 0
-113 -142 0
-112 -143 0
-111 -142 0
-111 -141 0
-111 -143 0
-115 -141 0
-114 -170 0
-111 -169 0
-115 -169 0
-113 -168 0
-111 -168 0
-112 -169 0
-113 -169 0
-120 -124 0
-120 -125 0
-119 -122 0
-116 -121 0
-116 -122 0
-116 -124 0
-118 -125 0
-117 -136 0
-116 -139 0
-120 -137 0
-120 -140 0
-117 -137 0
-118 -137 0
-116 -138 0
-118 -142 0
-119 -145 0
-120 -141 0
-120 -144 0
-116 -143 0
-118 -145 0
-119 -142 0
-118 -146 0
-118 -148 0
-117 -147 0
-119 -148 0
-120 -147 0
-116 -148 0
-120 -149 0
-117 -155 0
-117 -152 0
-116 -153 0
-120 -153 0
-118 -154 0
-116 -151 0
-118 -152 0
-116 -157 0
-116 -160 0
-117 -159 0
-118 -156 0
-117 -157 0
-116 -159 0
-118 -159 0
-116 -175 0
-118 -172 0
-117 -172 0
-119 -174 0
-116 -173 0
-117 -173 0
-118 -171 0
-121 -135 0
-124 -134 0
-124 -133 0
-122 -131 0
-121 -132 0
-124 -131 0
-121 -133 0
-123 -170 0
-125 -167 0
-122 -169 0
-124 -167 0
-121 -169 0
-124 -169 0
-122 -167 0
-125 -172 0
-122 -174 0
-122 -175 0
-122 -172 0
-124 -171 0
-123 -173 0
-124 -175 0
-130 -132 0
-126 -133 0
-129 -132 0
-127 -132 0
-127 -133 0
-127 -135 0
-127 -131 0
-126 -138 0
-128 -137 0
-128 -139 0
-128 -138 0
-127 -139 0
-128 -136 0
-126 -140 0
-127 -147 0
-129 -146 0
-126 -148 0
-127 -146 0
-127 -148 0
-126 -146 0
-128 -147 0
-126 -171 0
-130 -175 0
-127 -171 0
-128 -172 0
-127 -172 0
-128 -173 0
-127 -175 0
-133 -137 0
-131 -140 0
-135 -140 0
-134 -139 0
-135 -137 0
-134 -138 0
-134 -137 0
-133 -145 0
-132 -145 0
-133 -142 0
-131 -142 0
-135 -142 0
-133 -143 0
-131 -143 0
-132 -152 0
-135 -151 0
-135 -152 0
-134 -153 0
-133 -151 0
-132 -151 0
-134 -151 0
-133 -163 0
-134 -163 0
-135 -163 0
-135 -165 0
-132 -161 0
-135 -162 0
-132 -164 0
-135 -167 0
-131 -167 0
-134 -170 0
-133 -166 0
-132 -168 0
-133 -168 0
-131 -169 0
-137 -153 0
-136 -153 0
-140 -155 0
-136 -152 0
-140 -152 0
-136 -151 0
-139 -153 0
-144 -147 0
-143 -150 0
-141 -149 0
-145 -148 0
-141 -147 0
-145 -147 0
-143 -147 0
-144 -152 0
-142 -155 0
-144 -154 0
-142 -154 0
-145 -152 0
-142 -153 0
-143 -153 0
-150 -154 0
-149 -151 0
-147 -153 0
-148 -151 0
-149 -153 0
-148 -153 0
-148 -154 0
-146 -165 0
-147 -165 0
-150 -163 0
-149 -164 0
-146 -164 0
-147 -161 0
-150 -162 0
-147 -174 0
-148 -175 0
-146 -172 0
-150 -173 0
-148 -173 0
-150 -171 0
-149 -172 0
-152 -173 0
-155 -175 0
-153 -172 0
-152 -175 0
-152 -174 0
-154 -171 0
-152 -172 0
